(set-logic LIA)
(synth-fun next ((brake Int) (distance Int) (speed Int) (throttle Int) (ignition Bool) (time Int) ) Int
	((Start Int) (Var Int) (StartBool Bool))
	((Start Int (
				 5
				 6
				 7
				 (ite StartBool Start Start)))

	(Var Int (
			 0
			 1
			 2
			 3
			 9
			 12
			 17
			 80
			 1611
			 brake
			 distance
			 speed
			 throttle
			 time
			 (+ Var Var)						
			 (- Var Var)						
			 (* Var Var)))

	(StartBool Bool (
				 	 ignition
					(= Var Var)						
					(>= Var Var)						
					(<= Var Var)						
					(and StartBool StartBool)			
					(or  StartBool StartBool)				
					(not StartBool)))))

(constraint (= (next 0 8 27 2 true 1700 ) 7))
(constraint (= (next 0 13 12 1 true 1588 ) 5))
(constraint (= (next 0 14 12 1 true 1546 ) 6))

(check-synth)
